784 1512
1 2 1
1 29 2
2 3 1
2 30 1
3 4 5
3 31 1
4 5 4
4 32 3
5 6 4
5 33 5
6 7 5
6 34 2
7 8 3
7 35 4
8 9 1
8 36 4
9 10 1
9 37 4
10 11 5
10 38 4
11 12 5
11 39 1
12 13 1
12 40 1
13 14 5
13 41 3
14 15 1
14 42 1
15 16 4
15 43 1
16 17 3
16 44 1
17 18 4
17 45 5
18 19 5
18 46 2
19 20 2
19 47 5
20 21 2
20 48 3
21 22 4
21 49 3
22 23 2
22 50 1
23 24 1
23 51 4
24 25 4
24 52 2
25 26 4
25 53 1
26 27 4
26 54 2
27 28 2
27 55 1
28 56 2
29 30 5
29 57 2
30 31 2
30 58 2
31 32 4
31 59 3
32 33 5
32 60 3
33 34 5
33 61 4
34 35 5
34 62 3
35 36 2
35 63 2
36 37 4
36 64 4
37 38 2
37 65 3
38 39 2
38 66 4
39 40 1
39 67 3
40 41 3
40 68 1
41 42 3
41 69 2
42 43 3
42 70 1
43 44 1
43 71 5
44 45 5
44 72 2
45 46 3
45 73 5
46 47 5
46 74 5
47 48 3
47 75 3
48 49 3
48 76 3
49 50 1
49 77 1
50 51 5
50 78 3
51 52 4
51 79 5
52 53 4
52 80 2
53 54 2
53 81 3
54 55 4
54 82 1
55 56 2
55 83 1
56 84 4
57 58 5
57 85 1
58 59 1
58 86 3
59 60 1
59 87 4
60 61 2
60 88 4
61 62 4
61 89 2
62 63 2
62 90 5
63 64 2
63 91 1
64 65 3
64 92 1
65 66 5
65 93 2
66 67 3
66 94 1
67 68 1
67 95 5
68 69 3
68 96 5
69 70 5
69 97 5
70 71 5
70 98 3
71 72 4
71 99 5
72 73 2
72 100 5
73 74 1
73 101 3
74 75 4
74 102 1
75 76 2
75 103 1
76 77 1
76 104 2
77 78 5
77 105 1
78 79 3
78 106 1
79 80 1
79 107 5
80 81 1
80 108 2
81 82 2
81 109 2
82 83 1
82 110 1
83 84 5
83 111 4
84 112 2
85 86 4
85 113 1
86 87 4
86 114 4
87 88 4
87 115 4
88 89 5
88 116 4
89 90 3
89 117 5
90 91 2
90 118 1
91 92 4
91 119 4
92 93 4
92 120 2
93 94 4
93 121 1
94 95 3
94 122 5
95 96 1
95 123 1
96 97 3
96 124 4
97 98 5
97 125 3
98 99 4
98 126 1
99 100 5
99 127 2
100 101 2
100 128 1
101 102 4
101 129 5
102 103 5
102 130 2
103 104 4
103 131 3
104 105 5
104 132 3
105 106 1
105 133 5
106 107 3
106 134 1
107 108 2
107 135 4
108 109 1
108 136 1
109 110 5
109 137 4
110 111 2
110 138 1
111 112 3
111 139 3
112 140 1
113 114 1
113 141 4
114 115 4
114 142 3
115 116 3
115 143 5
116 117 2
116 144 1
117 118 3
117 145 5
118 119 2
118 146 2
119 120 4
119 147 4
120 121 4
120 148 4
121 122 2
121 149 3
122 123 5
122 150 5
123 124 1
123 151 5
124 125 1
124 152 4
125 126 2
125 153 2
126 127 5
126 154 5
127 128 2
127 155 5
128 129 3
128 156 1
129 130 1
129 157 1
130 131 3
130 158 3
131 132 4
131 159 4
132 133 1
132 160 4
133 134 1
133 161 3
134 135 1
134 162 5
135 136 4
135 163 1
136 137 5
136 164 1
137 138 1
137 165 1
138 139 3
138 166 1
139 140 1
139 167 2
140 168 1
141 142 1
141 169 2
142 143 5
142 170 1
143 144 3
143 171 4
144 145 1
144 172 1
145 146 3
145 173 3
146 147 2
146 174 3
147 148 3
147 175 2
148 149 1
148 176 4
149 150 2
149 177 1
150 151 2
150 178 1
151 152 5
151 179 3
152 153 2
152 180 5
153 154 1
153 181 2
154 155 3
154 182 5
155 156 5
155 183 3
156 157 1
156 184 5
157 158 1
157 185 2
158 159 3
158 186 4
159 160 1
159 187 2
160 161 1
160 188 4
161 162 1
161 189 2
162 163 3
162 190 5
163 164 2
163 191 1
164 165 1
164 192 2
165 166 5
165 193 3
166 167 2
166 194 1
167 168 3
167 195 3
168 196 5
169 170 1
169 197 1
170 171 4
170 198 2
171 172 5
171 199 5
172 173 2
172 200 4
173 174 2
173 201 4
174 175 4
174 202 2
175 176 4
175 203 4
176 177 1
176 204 1
177 178 3
177 205 4
178 179 5
178 206 3
179 180 1
179 207 2
180 181 5
180 208 2
181 182 2
181 209 1
182 183 4
182 210 5
183 184 4
183 211 1
184 185 4
184 212 2
185 186 4
185 213 5
186 187 5
186 214 1
187 188 1
187 215 1
188 189 3
188 216 2
189 190 3
189 217 1
190 191 4
190 218 1
191 192 5
191 219 2
192 193 4
192 220 1
193 194 1
193 221 5
194 195 3
194 222 5
195 196 1
195 223 4
196 224 2
197 198 5
197 225 5
198 199 2
198 226 2
199 200 4
199 227 3
200 201 2
200 228 2
201 202 4
201 229 2
202 203 4
202 230 1
203 204 2
203 231 3
204 205 5
204 232 5
205 206 5
205 233 1
206 207 5
206 234 3
207 208 4
207 235 5
208 209 1
208 236 2
209 210 3
209 237 2
210 211 4
210 238 5
211 212 2
211 239 1
212 213 1
212 240 1
213 214 3
213 241 1
214 215 2
214 242 5
215 216 5
215 243 3
216 217 2
216 244 1
217 218 5
217 245 5
218 219 3
218 246 3
219 220 3
219 247 1
220 221 1
220 248 2
221 222 2
221 249 1
222 223 3
222 250 5
223 224 2
223 251 4
224 252 1
225 226 4
225 253 3
226 227 4
226 254 5
227 228 3
227 255 5
228 229 1
228 256 2
229 230 5
229 257 4
230 231 1
230 258 3
231 232 3
231 259 4
232 233 1
232 260 5
233 234 3
233 261 2
234 235 2
234 262 2
235 236 4
235 263 3
236 237 1
236 264 5
237 238 1
237 265 4
238 239 1
238 266 2
239 240 2
239 267 5
240 241 1
240 268 5
241 242 4
241 269 1
242 243 1
242 270 5
243 244 5
243 271 2
244 245 5
244 272 1
245 246 2
245 273 5
246 247 5
246 274 1
247 248 4
247 275 3
248 249 3
248 276 2
249 250 5
249 277 5
250 251 5
250 278 1
251 252 4
251 279 5
252 280 5
253 254 5
253 281 1
254 255 5
254 282 3
255 256 5
255 283 4
256 257 5
256 284 1
257 258 2
257 285 1
258 259 2
258 286 4
259 260 1
259 287 5
260 261 4
260 288 2
261 262 1
261 289 5
262 263 2
262 290 5
263 264 2
263 291 5
264 265 1
264 292 4
265 266 2
265 293 1
266 267 4
266 294 3
267 268 3
267 295 5
268 269 2
268 296 5
269 270 2
269 297 3
270 271 2
270 298 5
271 272 4
271 299 4
272 273 1
272 300 1
273 274 3
273 301 4
274 275 5
274 302 2
275 276 3
275 303 5
276 277 3
276 304 3
277 278 2
277 305 4
278 279 3
278 306 4
279 280 2
279 307 1
280 308 2
281 282 2
281 309 1
282 283 1
282 310 4
283 284 5
283 311 5
284 285 5
284 312 5
285 286 3
285 313 4
286 287 2
286 314 5
287 288 5
287 315 1
288 289 4
288 316 5
289 290 1
289 317 2
290 291 4
290 318 3
291 292 4
291 319 4
292 293 5
292 320 4
293 294 2
293 321 1
294 295 3
294 322 1
295 296 2
295 323 4
296 297 2
296 324 1
297 298 1
297 325 2
298 299 5
298 326 2
299 300 2
299 327 1
300 301 2
300 328 4
301 302 2
301 329 3
302 303 3
302 330 5
303 304 2
303 331 3
304 305 1
304 332 3
305 306 3
305 333 5
306 307 3
306 334 1
307 308 4
307 335 3
308 336 3
309 310 3
309 337 4
310 311 2
310 338 5
311 312 5
311 339 5
312 313 4
312 340 2
313 314 2
313 341 5
314 315 2
314 342 2
315 316 5
315 343 3
316 317 3
316 344 1
317 318 1
317 345 5
318 319 4
318 346 1
319 320 5
319 347 1
320 321 4
320 348 5
321 322 2
321 349 2
322 323 2
322 350 5
323 324 5
323 351 4
324 325 1
324 352 4
325 326 1
325 353 1
326 327 2
326 354 4
327 328 2
327 355 3
328 329 2
328 356 4
329 330 2
329 357 4
330 331 5
330 358 5
331 332 4
331 359 2
332 333 3
332 360 3
333 334 2
333 361 1
334 335 3
334 362 2
335 336 1
335 363 5
336 364 5
337 338 5
337 365 4
338 339 1
338 366 3
339 340 2
339 367 1
340 341 2
340 368 3
341 342 3
341 369 3
342 343 4
342 370 1
343 344 4
343 371 4
344 345 2
344 372 3
345 346 4
345 373 5
346 347 1
346 374 2
347 348 3
347 375 2
348 349 5
348 376 5
349 350 2
349 377 1
350 351 1
350 378 3
351 352 4
351 379 2
352 353 3
352 380 3
353 354 4
353 381 3
354 355 3
354 382 4
355 356 3
355 383 2
356 357 3
356 384 4
357 358 3
357 385 3
358 359 5
358 386 5
359 360 2
359 387 4
360 361 1
360 388 2
361 362 2
361 389 2
362 363 5
362 390 3
363 364 2
363 391 4
364 392 5
365 366 4
365 393 2
366 367 3
366 394 4
367 368 2
367 395 2
368 369 3
368 396 5
369 370 3
369 397 4
370 371 3
370 398 1
371 372 2
371 399 5
372 373 3
372 400 5
373 374 1
373 401 4
374 375 5
374 402 1
375 376 5
375 403 4
376 377 4
376 404 1
377 378 5
377 405 2
378 379 4
378 406 5
379 380 2
379 407 5
380 381 5
380 408 4
381 382 5
381 409 2
382 383 1
382 410 4
383 384 4
383 411 2
384 385 5
384 412 2
385 386 1
385 413 5
386 387 3
386 414 5
387 388 1
387 415 4
388 389 3
388 416 4
389 390 5
389 417 4
390 391 5
390 418 4
391 392 2
391 419 3
392 420 2
393 394 2
393 421 3
394 395 2
394 422 3
395 396 1
395 423 2
396 397 5
396 424 1
397 398 5
397 425 5
398 399 2
398 426 2
399 400 5
399 427 2
400 401 3
400 428 3
401 402 5
401 429 5
402 403 5
402 430 3
403 404 4
403 431 3
404 405 4
404 432 4
405 406 4
405 433 4
406 407 2
406 434 4
407 408 3
407 435 4
408 409 2
408 436 2
409 410 2
409 437 5
410 411 5
410 438 4
411 412 2
411 439 5
412 413 5
412 440 5
413 414 5
413 441 3
414 415 4
414 442 2
415 416 4
415 443 3
416 417 2
416 444 1
417 418 5
417 445 2
418 419 4
418 446 5
419 420 2
419 447 4
420 448 3
421 422 3
421 449 1
422 423 1
422 450 1
423 424 3
423 451 2
424 425 3
424 452 5
425 426 5
425 453 3
426 427 2
426 454 4
427 428 1
427 455 2
428 429 1
428 456 1
429 430 1
429 457 1
430 431 2
430 458 5
431 432 4
431 459 3
432 433 4
432 460 5
433 434 2
433 461 4
434 435 3
434 462 4
435 436 1
435 463 3
436 437 4
436 464 5
437 438 3
437 465 4
438 439 2
438 466 1
439 440 2
439 467 5
440 441 3
440 468 2
441 442 2
441 469 5
442 443 3
442 470 1
443 444 1
443 471 2
444 445 4
444 472 3
445 446 2
445 473 3
446 447 3
446 474 3
447 448 3
447 475 5
448 476 3
449 450 3
449 477 3
450 451 5
450 478 4
451 452 5
451 479 5
452 453 4
452 480 5
453 454 2
453 481 1
454 455 1
454 482 3
455 456 1
455 483 4
456 457 3
456 484 4
457 458 2
457 485 2
458 459 4
458 486 2
459 460 3
459 487 5
460 461 3
460 488 3
461 462 2
461 489 2
462 463 2
462 490 4
463 464 4
463 491 4
464 465 4
464 492 2
465 466 1
465 493 1
466 467 5
466 494 5
467 468 5
467 495 5
468 469 5
468 496 2
469 470 1
469 497 3
470 471 5
470 498 4
471 472 5
471 499 3
472 473 1
472 500 5
473 474 3
473 501 4
474 475 3
474 502 2
475 476 2
475 503 1
476 504 1
477 478 2
477 505 4
478 479 5
478 506 2
479 480 2
479 507 2
480 481 2
480 508 1
481 482 3
481 509 5
482 483 1
482 510 4
483 484 2
483 511 4
484 485 1
484 512 1
485 486 5
485 513 4
486 487 3
486 514 5
487 488 2
487 515 2
488 489 5
488 516 3
489 490 4
489 517 5
490 491 5
490 518 5
491 492 3
491 519 5
492 493 3
492 520 2
493 494 4
493 521 4
494 495 3
494 522 4
495 496 2
495 523 2
496 497 1
496 524 2
497 498 4
497 525 3
498 499 4
498 526 4
499 500 3
499 527 4
500 501 5
500 528 4
501 502 1
501 529 1
502 503 1
502 530 2
503 504 4
503 531 4
504 532 4
505 506 1
505 533 2
506 507 2
506 534 3
507 508 5
507 535 3
508 509 2
508 536 2
509 510 2
509 537 1
510 511 3
510 538 2
511 512 4
511 539 4
512 513 1
512 540 4
513 514 4
513 541 5
514 515 2
514 542 5
515 516 3
515 543 3
516 517 1
516 544 3
517 518 1
517 545 1
518 519 4
518 546 3
519 520 1
519 547 1
520 521 2
520 548 5
521 522 1
521 549 3
522 523 4
522 550 4
523 524 5
523 551 3
524 525 4
524 552 1
525 526 4
525 553 5
526 527 2
526 554 4
527 528 1
527 555 2
528 529 2
528 556 1
529 530 5
529 557 4
530 531 2
530 558 5
531 532 4
531 559 4
532 560 4
533 534 3
533 561 3
534 535 1
534 562 1
535 536 4
535 563 1
536 537 3
536 564 1
537 538 1
537 565 5
538 539 4
538 566 5
539 540 3
539 567 5
540 541 3
540 568 4
541 542 3
541 569 1
542 543 5
542 570 2
543 544 5
543 571 3
544 545 5
544 572 5
545 546 1
545 573 4
546 547 5
546 574 5
547 548 4
547 575 5
548 549 4
548 576 2
549 550 2
549 577 4
550 551 3
550 578 1
551 552 2
551 579 2
552 553 5
552 580 2
553 554 3
553 581 1
554 555 5
554 582 3
555 556 3
555 583 5
556 557 3
556 584 5
557 558 5
557 585 1
558 559 5
558 586 2
559 560 4
559 587 1
560 588 2
561 562 1
561 589 3
562 563 1
562 590 3
563 564 3
563 591 1
564 565 5
564 592 5
565 566 3
565 593 5
566 567 1
566 594 3
567 568 2
567 595 3
568 569 3
568 596 1
569 570 3
569 597 1
570 571 3
570 598 2
571 572 2
571 599 3
572 573 1
572 600 1
573 574 5
573 601 2
574 575 2
574 602 2
575 576 4
575 603 5
576 577 3
576 604 1
577 578 2
577 605 3
578 579 4
578 606 3
579 580 5
579 607 4
580 581 1
580 608 4
581 582 2
581 609 2
582 583 1
582 610 5
583 584 3
583 611 1
584 585 4
584 612 1
585 586 1
585 613 1
586 587 2
586 614 2
587 588 4
587 615 5
588 616 4
589 590 5
589 617 3
590 591 1
590 618 4
591 592 4
591 619 3
592 593 1
592 620 2
593 594 1
593 621 5
594 595 4
594 622 5
595 596 4
595 623 2
596 597 4
596 624 4
597 598 1
597 625 3
598 599 3
598 626 3
599 600 2
599 627 2
600 601 3
600 628 4
601 602 2
601 629 1
602 603 5
602 630 5
603 604 1
603 631 1
604 605 3
604 632 4
605 606 5
605 633 1
606 607 5
606 634 3
607 608 5
607 635 1
608 609 4
608 636 2
609 610 1
609 637 5
610 611 2
610 638 1
611 612 5
611 639 1
612 613 5
612 640 1
613 614 5
613 641 2
614 615 1
614 642 5
615 616 3
615 643 1
616 644 2
617 618 3
617 645 4
618 619 1
618 646 4
619 620 4
619 647 3
620 621 1
620 648 3
621 622 1
621 649 4
622 623 1
622 650 4
623 624 1
623 651 1
624 625 1
624 652 3
625 626 5
625 653 5
626 627 3
626 654 4
627 628 3
627 655 3
628 629 5
628 656 1
629 630 4
629 657 5
630 631 2
630 658 2
631 632 3
631 659 5
632 633 5
632 660 3
633 634 2
633 661 1
634 635 2
634 662 1
635 636 5
635 663 2
636 637 5
636 664 3
637 638 4
637 665 2
638 639 2
638 666 4
639 640 2
639 667 4
640 641 2
640 668 1
641 642 5
641 669 3
642 643 2
642 670 3
643 644 2
643 671 1
644 672 3
645 646 2
645 673 3
646 647 2
646 674 2
647 648 3
647 675 5
648 649 2
648 676 2
649 650 1
649 677 3
650 651 1
650 678 2
651 652 3
651 679 1
652 653 5
652 680 2
653 654 3
653 681 5
654 655 4
654 682 4
655 656 1
655 683 5
656 657 3
656 684 5
657 658 3
657 685 3
658 659 3
658 686 1
659 660 3
659 687 4
660 661 5
660 688 4
661 662 4
661 689 4
662 663 2
662 690 1
663 664 1
663 691 1
664 665 3
664 692 5
665 666 5
665 693 3
666 667 4
666 694 3
667 668 2
667 695 5
668 669 4
668 696 3
669 670 5
669 697 1
670 671 2
670 698 1
671 672 1
671 699 1
672 700 2
673 674 4
673 701 5
674 675 1
674 702 3
675 676 4
675 703 4
676 677 3
676 704 2
677 678 4
677 705 4
678 679 4
678 706 2
679 680 5
679 707 2
680 681 2
680 708 2
681 682 3
681 709 1
682 683 4
682 710 1
683 684 5
683 711 4
684 685 1
684 712 2
685 686 1
685 713 4
686 687 4
686 714 3
687 688 5
687 715 1
688 689 1
688 716 5
689 690 3
689 717 3
690 691 2
690 718 3
691 692 4
691 719 4
692 693 3
692 720 2
693 694 5
693 721 2
694 695 3
694 722 2
695 696 1
695 723 1
696 697 3
696 724 2
697 698 4
697 725 5
698 699 5
698 726 2
699 700 2
699 727 5
700 728 3
701 702 2
701 729 4
702 703 3
702 730 3
703 704 3
703 731 1
704 705 5
704 732 2
705 706 5
705 733 1
706 707 3
706 734 4
707 708 4
707 735 2
708 709 4
708 736 5
709 710 5
709 737 5
710 711 5
710 738 2
711 712 3
711 739 5
712 713 5
712 740 3
713 714 1
713 741 3
714 715 1
714 742 3
715 716 4
715 743 5
716 717 1
716 744 1
717 718 5
717 745 3
718 719 2
718 746 1
719 720 4
719 747 2
720 721 4
720 748 2
721 722 5
721 749 2
722 723 3
722 750 2
723 724 1
723 751 5
724 725 2
724 752 1
725 726 5
725 753 4
726 727 3
726 754 2
727 728 3
727 755 2
728 756 3
729 730 4
729 757 2
730 731 3
730 758 5
731 732 4
731 759 1
732 733 5
732 760 2
733 734 2
733 761 2
734 735 5
734 762 5
735 736 4
735 763 3
736 737 2
736 764 5
737 738 4
737 765 3
738 739 1
738 766 2
739 740 5
739 767 3
740 741 1
740 768 1
741 742 2
741 769 1
742 743 5
742 770 4
743 744 2
743 771 2
744 745 4
744 772 3
745 746 5
745 773 4
746 747 2
746 774 5
747 748 5
747 775 1
748 749 4
748 776 5
749 750 3
749 777 2
750 751 2
750 778 1
751 752 5
751 779 1
752 753 2
752 780 2
753 754 5
753 781 5
754 755 2
754 782 4
755 756 5
755 783 1
756 784 2
757 758 5
758 759 4
759 760 2
760 761 2
761 762 3
762 763 3
763 764 1
764 765 1
765 766 2
766 767 1
767 768 3
768 769 2
769 770 4
770 771 2
771 772 4
772 773 5
773 774 5
774 775 2
775 776 5
776 777 4
777 778 1
778 779 4
779 780 3
780 781 1
781 782 3
782 783 5
783 784 1
